Route #1: 63 23 56 41 64 42 43 1 73
Route #2: 33 62 22 61 28 2 68
Route #3: 75 30 74 21 47 48 45
Route #4: 29 5 36 69 71 60 70 20 37 15 57
Route #5: 67 46 8 52 27 4
Route #6: 7 14 59 19 54 13 34
Route #7: 38 65 66 11 53 35
Route #8: 72 39 9 25 55 31 10 58
Route #9: 26 12 40 44 3 51 6
Route #10: 16 49 24 18 50 32 17
Cost 835
Time 0.205305
